unknown
(:binary-propagations  1738
 :decisions            755
 :del-clause           869
 :final-checks         2
 :max-generation       1
 :max-memory           31.87
 :memory               22.93
 :mk-bool-var          4607
 :mk-clause            1369
 :mk-clause-binary     2738
 :num-allocs           535078792
 :num-checks           1
 :propagations         1983
 :quant-instantiations 869
 :restarts             1
 :rlimit-count         1545992
 :time                 0.31)
